GLPSOL--GLPK LP/MIP Solver 5.0
Parameter(s) specified in the command line:
 --lp ../modeles/5_39.lp --log 5_39.log
Reading problem data from '../modeles/5_39.lp'...
216 rows, 400 columns, 1390 non-zeros
195 integer variables, all of which are binary
627 lines were read
GLPK Integer Optimizer 5.0
216 rows, 400 columns, 1390 non-zeros
195 integer variables, all of which are binary
Preprocessing...
190 constraint coefficient(s) were reduced
216 rows, 395 columns, 1385 non-zeros
195 integer variables, all of which are binary
Scaling...
 A: min|aij| =  2.630e-03  max|aij| =  4.000e+00  ratio =  1.521e+03
GM: min|aij| =  1.601e-01  max|aij| =  6.245e+00  ratio =  3.900e+01
EQ: min|aij| =  2.564e-02  max|aij| =  1.000e+00  ratio =  3.900e+01
2N: min|aij| =  2.104e-02  max|aij| =  1.583e+00  ratio =  7.523e+01
Constructing initial basis...
Size of triangular part is 216
Solving LP relaxation...
GLPK Simplex Optimizer 5.0
216 rows, 395 columns, 1385 non-zeros
      0: obj =   1.000000000e+01 inf =   2.450e+01 (11)
     44: obj =   4.937500000e-01 inf =   0.000e+00 (0)
*   123: obj =  -2.228365385e+00 inf =   3.070e-16 (0)
OPTIMAL LP SOLUTION FOUND
Integer optimization begins...
Long-step dual simplex will be used
+   123: mip =     not found yet >=              -inf        (1; 0)
+   144: >>>>>  -2.228365385e+00 >=  -2.228365385e+00   0.0% (20; 0)
+   144: mip =  -2.228365385e+00 >=     tree is empty   0.0% (0; 39)
INTEGER OPTIMAL SOLUTION FOUND
Time used:   0.0 secs
Memory used: 0.6 Mb (638197 bytes)
